65 59 47 14 12 11 15 16 73 78 79 7 6 8 46 3 4 1 55 100 70 
64 19 23 21 18 76 51 85 84 94 93 
69 88 53 99 86 87 9 10 13 17 60 
92 95 63 33 28 27 29 31 30 62 67 50 34 32 26 89 48 24 91 80 
81 61 90 
71 54 96 
72 36 39 42 44 41 38 40 35 37 43 68 
83 57 22 49 20 56 66 
5 45 2 98 82 52 75 97 74 58 77 25 
